65 
300 
19.1 24.3 0 0
18.2 24 0 -61
12.6 24.9 -20 -93
14.4 28 -20 -83
16.9 28.1 20 -28
20.7 28.2 -20 -137
12.5 26.6 20 -27
21.8 27.3 20 -25
12.5 22.6 20 -28
22.5 17 -30 -110
19.9 15 30 -29
14.9 15.1 -30 -108
11.5 18.6 -30 -121
12.4 29.8 30 -17
17.8 28.1 30 -12
9.1 29.8 -40 -120
10 32.6 40 -26
13.9 33.1 -40 -117
19.95 10.3 40 -25
15.2 8 40 -18
14.7 31.2 -50 -110
7.4 36.5 -50 -88
21 25.5 -50 -83
18 25.3 -10 -107
19.5 24.7 10 -28
21.4 21.8 10 -29
16 21.4 10 -21
18.65 26.2 -10 -96
17.9 28.9 10 -14
14.3 19.9 20 -14
17 19 -20 -98
10.8 21 20 -16
15.7 23.7 -10 -128
